language ESSENCE' 1.0

letting jobs = 102
letting horizon = 794
letting resourcesRenew = 2
letting resourcesNonrenew = 2
letting resourceLimits = [16, 20, 277, 280]
letting successors = [[2, 3, 4, 8, 9, 10, 11], [23, 17, 15, 13, 7, 5], [6, 5], [31, 27, 25, 24, 21, 18, 16, 12], [31, 25, 24, 21, 18, 16, 12], [27, 23, 21, 16, 14, 12], [31, 27, 21, 20, 18, 14], [31, 30, 29, 27, 25, 22, 21, 20, 19], [30, 19, 13], [37, 34, 32, 30, 29, 28, 26, 24, 22, 21], [49, 37, 28, 27, 25, 24, 21, 20], [40, 30, 29, 22, 20, 19], [37, 34, 32, 28, 27, 26, 25, 22, 21], [40, 29, 25, 19], [49, 44, 43, 42, 40, 37, 34, 32, 31, 30, 27], [48, 43, 40, 34, 32, 30, 28, 22], [34, 33, 32, 26, 25, 21], [49, 48, 42, 40, 34, 33, 32, 30, 26], [49, 48, 43, 39, 38, 37, 36, 34, 33, 28], [48, 41, 39, 34, 33, 32, 26], [48, 45, 44, 43, 42, 41, 40, 39, 36, 35], [49, 44, 42, 41, 39, 38, 36, 35, 33], [48, 42, 41, 40, 34, 32], [46, 44, 42, 41, 38], [48, 42, 38, 36], [51, 45, 44, 43, 36], [50, 48, 45, 41, 36], [44, 42, 41, 35], [57, 51, 49, 46, 38], [58, 57, 51, 46, 45, 39], [51, 41, 35], [57, 54, 52, 51, 38], [58, 57, 56, 53, 52, 51, 50, 46, 45], [45, 35], [58, 56, 52, 50, 47, 46], [59, 58, 56, 53, 52, 46], [71, 58, 54, 52, 51, 47], [58, 56, 50, 47, 45], [56, 54, 52, 50, 47], [71, 70, 58, 56, 54, 47], [71, 57, 54, 52, 47], [71, 65, 57, 51, 47], [57, 52, 50, 47], [71, 70, 54, 47], [72, 71, 70, 69, 68, 66, 65, 61, 60, 55], [72, 71, 70, 66, 62, 61, 60, 55, 54], [69, 68, 66, 62, 60, 59, 55, 53], [71, 65, 57, 55, 51], [68, 59, 53, 52], [72, 71, 62, 61, 60, 55], [79, 75, 70, 66, 63, 61, 59], [86, 79, 75, 70, 69, 63, 61], [79, 76, 72, 63, 61], [93, 86, 79, 76, 74, 67, 65, 64], [93, 79, 78, 76, 75, 74, 63], [79, 72, 68, 66, 62], [81, 79, 78, 72, 67, 66], [79, 73, 72, 62], [81, 74, 72, 64], [93, 86, 79, 78, 75, 73, 67], [93, 92, 74, 64], [93, 82, 81, 80, 78, 77, 76], [81, 80, 73, 67], [80, 78, 73], [92, 87, 82, 81, 77], [93, 91, 84, 82, 80, 76], [100, 92, 91, 87, 83, 77], [101, 93, 91, 87, 85, 76], [93, 91, 78, 77], [92, 91, 80, 77], [101, 92, 85, 74], [99, 93, 92, 91, 89, 86, 80], [91, 83, 82, 77], [100, 99, 98, 91, 90, 88, 87, 83], [100, 98, 97, 89, 88, 87, 84], [100, 99, 98, 92, 90, 88, 83], [97, 88, 85, 84], [101, 100, 99, 97, 90, 89, 88, 87], [101, 100, 98, 83], [100, 98, 97, 95, 90, 88], [100, 91, 83], [99, 98, 96, 90, 89], [97, 96, 94, 89], [101, 99, 95, 90], [98, 96, 94, 89], [101, 96, 95, 94], [96, 95, 94], [96, 94], [95], [94], [95], [94], [96], [102], [102], [102], [102], [102], [102], [102], [102], []]
letting durations = [[0], [1, 4, 6], [4, 6, 8], [4, 10, 10], [8, 9, 10], [7, 7, 8], [5, 6, 7], [2, 2, 6], [5, 7, 10], [2, 3, 5], [1, 4, 9], [2, 2, 9], [2, 2, 5], [5, 8, 9], [1, 3, 7], [5, 7, 9], [4, 6, 8], [5, 7, 9], [2, 3, 4], [4, 7, 9], [3, 6, 8], [5, 7, 9], [6, 9, 9], [4, 7, 8], [4, 5, 6], [1, 2, 9], [5, 6, 8], [1, 1, 4], [9, 9, 9], [2, 4, 9], [3, 5, 10], [6, 6, 7], [1, 2, 7], [8, 8, 9], [1, 2, 10], [2, 3, 9], [7, 10, 10], [3, 9, 10], [3, 8, 9], [2, 6, 8], [1, 2, 3], [1, 8, 9], [1, 3, 8], [1, 9, 10], [3, 6, 9], [2, 4, 7], [2, 6, 9], [4, 4, 9], [6, 6, 7], [2, 4, 5], [7, 10, 10], [1, 2, 3], [1, 8, 10], [2, 3, 6], [3, 6, 10], [5, 8, 9], [3, 6, 10], [2, 10, 10], [4, 6, 7], [1, 3, 8], [2, 7, 10], [1, 1, 5], [2, 3, 8], [1, 1, 9], [1, 5, 5], [3, 4, 10], [1, 3, 9], [1, 4, 8], [5, 7, 10], [2, 3, 8], [6, 6, 7], [2, 3, 6], [5, 5, 8], [2, 3, 7], [2, 3, 9], [2, 3, 5], [5, 7, 8], [1, 2, 10], [1, 2, 4], [4, 5, 5], [1, 2, 3], [2, 7, 9], [1, 3, 7], [3, 5, 8], [4, 6, 9], [1, 3, 8], [4, 5, 7], [3, 5, 8], [6, 9, 10], [6, 7, 7], [4, 5, 6], [7, 7, 10], [1, 5, 9], [3, 5, 9], [2, 5, 8], [1, 5, 6], [3, 4, 9], [5, 8, 10], [6, 8, 8], [4, 4, 7], [1, 10, 10], [0]]
letting resourceUsage = [[[0, 0, 0, 0]], [[3, 0, 6, 0], [2, 0, 0, 6], [2, 0, 0, 2]], [[0, 2, 8, 0], [3, 0, 0, 5], [2, 0, 0, 4]], [[4, 0, 0, 10], [0, 1, 7, 0], [4, 0, 7, 0]], [[4, 0, 0, 4], [4, 0, 0, 2], [4, 0, 0, 1]], [[0, 1, 6, 0], [4, 0, 0, 1], [0, 1, 0, 1]], [[3, 0, 6, 0], [2, 0, 5, 0], [2, 0, 0, 7]], [[0, 4, 0, 8], [0, 3, 7, 0], [1, 0, 0, 5]], [[4, 0, 7, 0], [0, 4, 3, 0], [3, 0, 3, 0]], [[0, 1, 0, 8], [1, 0, 0, 4], [1, 0, 0, 3]], [[3, 0, 0, 9], [0, 2, 0, 6], [0, 2, 4, 0]], [[5, 0, 0, 3], [0, 3, 0, 3], [0, 1, 6, 0]], [[5, 0, 0, 5], [0, 3, 5, 0], [0, 2, 0, 5]], [[0, 4, 0, 8], [1, 0, 0, 7], [0, 2, 6, 0]], [[0, 5, 8, 0], [1, 0, 7, 0], [0, 3, 7, 0]], [[0, 4, 0, 10], [2, 0, 0, 9], [0, 4, 0, 8]], [[0, 3, 9, 0], [0, 3, 0, 5], [0, 3, 5, 0]], [[4, 0, 3, 0], [0, 4, 0, 7], [3, 0, 2, 0]], [[3, 0, 0, 9], [0, 3, 0, 7], [2, 0, 2, 0]], [[0, 5, 0, 2], [0, 4, 2, 0], [3, 0, 0, 2]], [[0, 5, 2, 0], [4, 0, 0, 6], [0, 1, 0, 5]], [[0, 1, 2, 0], [0, 1, 1, 0], [4, 0, 0, 3]], [[0, 4, 10, 0], [0, 3, 7, 0], [0, 3, 0, 10]], [[3, 0, 10, 0], [3, 0, 8, 0], [0, 3, 8, 0]], [[2, 0, 7, 0], [0, 3, 0, 7], [1, 0, 0, 5]], [[0, 5, 7, 0], [2, 0, 0, 6], [0, 3, 4, 0]], [[0, 3, 0, 9], [0, 2, 0, 7], [0, 2, 4, 0]], [[0, 5, 5, 0], [4, 0, 0, 5], [0, 5, 3, 0]], [[0, 3, 9, 0], [0, 2, 0, 1], [1, 0, 9, 0]], [[5, 0, 0, 6], [0, 2, 0, 6], [5, 0, 0, 5]], [[0, 2, 0, 8], [4, 0, 0, 7], [4, 0, 0, 6]], [[1, 0, 2, 0], [1, 0, 0, 6], [1, 0, 0, 5]], [[0, 4, 0, 6], [0, 3, 8, 0], [0, 2, 8, 0]], [[4, 0, 0, 6], [0, 4, 6, 0], [0, 4, 5, 0]], [[0, 3, 7, 0], [3, 0, 0, 4], [2, 0, 2, 0]], [[0, 5, 8, 0], [0, 5, 4, 0], [0, 5, 3, 0]], [[0, 5, 0, 7], [2, 0, 9, 0], [0, 3, 7, 0]], [[0, 4, 0, 8], [3, 0, 3, 0], [3, 0, 0, 4]], [[0, 3, 7, 0], [0, 2, 5, 0], [3, 0, 2, 0]], [[0, 5, 6, 0], [1, 0, 0, 10], [0, 1, 0, 10]], [[3, 0, 0, 3], [0, 4, 0, 3], [0, 2, 4, 0]], [[4, 0, 6, 0], [0, 3, 3, 0], [3, 0, 3, 0]], [[3, 0, 0, 3], [2, 0, 8, 0], [2, 0, 7, 0]], [[0, 2, 6, 0], [3, 0, 5, 0], [3, 0, 0, 2]], [[0, 5, 0, 1], [0, 5, 3, 0], [1, 0, 2, 0]], [[4, 0, 0, 5], [4, 0, 0, 4], [0, 4, 0, 2]], [[0, 4, 0, 9], [0, 4, 2, 0], [1, 0, 1, 0]], [[0, 2, 4, 0], [2, 0, 4, 0], [2, 0, 0, 3]], [[5, 0, 8, 0], [0, 4, 0, 7], [0, 3, 0, 7]], [[5, 0, 8, 0], [4, 0, 0, 8], [4, 0, 6, 0]], [[0, 5, 0, 10], [0, 5, 0, 9], [0, 5, 3, 0]], [[0, 4, 9, 0], [0, 4, 8, 0], [2, 0, 7, 0]], [[3, 0, 0, 5], [2, 0, 0, 3], [1, 0, 3, 0]], [[0, 5, 0, 6], [0, 4, 0, 3], [0, 4, 2, 0]], [[0, 3, 0, 8], [4, 0, 5, 0], [4, 0, 0, 4]], [[3, 0, 0, 1], [2, 0, 0, 2], [2, 0, 0, 1]], [[3, 0, 0, 6], [3, 0, 1, 0], [0, 4, 1, 0]], [[2, 0, 0, 6], [1, 0, 0, 6], [0, 2, 0, 6]], [[2, 0, 0, 8], [2, 0, 0, 6], [0, 2, 4, 0]], [[0, 3, 4, 0], [2, 0, 0, 8], [0, 2, 0, 7]], [[0, 1, 0, 8], [0, 1, 0, 7], [2, 0, 1, 0]], [[4, 0, 9, 0], [0, 2, 8, 0], [3, 0, 7, 0]], [[3, 0, 6, 0], [2, 0, 4, 0], [0, 2, 4, 0]], [[0, 4, 0, 8], [2, 0, 2, 0], [2, 0, 1, 0]], [[4, 0, 2, 0], [4, 0, 1, 0], [0, 1, 1, 0]], [[5, 0, 0, 9], [3, 0, 0, 8], [3, 0, 5, 0]], [[3, 0, 0, 3], [0, 1, 3, 0], [0, 1, 2, 0]], [[2, 0, 0, 6], [2, 0, 7, 0], [2, 0, 0, 2]], [[0, 5, 9, 0], [0, 3, 0, 3], [0, 1, 2, 0]], [[0, 4, 9, 0], [0, 4, 8, 0], [0, 4, 7, 0]], [[0, 4, 7, 0], [1, 0, 0, 7], [0, 3, 3, 0]], [[0, 5, 0, 10], [0, 5, 4, 0], [0, 5, 0, 7]], [[4, 0, 0, 10], [0, 2, 0, 8], [0, 2, 0, 7]], [[0, 5, 9, 0], [0, 3, 0, 5], [0, 3, 7, 0]], [[0, 4, 3, 0], [4, 0, 3, 0], [4, 0, 0, 1]], [[4, 0, 0, 4], [4, 0, 0, 3], [0, 2, 3, 0]], [[0, 4, 0, 5], [0, 3, 0, 2], [0, 1, 0, 2]], [[0, 5, 0, 9], [0, 3, 0, 6], [2, 0, 0, 4]], [[0, 4, 0, 6], [0, 3, 7, 0], [2, 0, 7, 0]], [[0, 4, 9, 0], [3, 0, 0, 6], [2, 0, 7, 0]], [[0, 5, 7, 0], [0, 4, 3, 0], [0, 4, 2, 0]], [[4, 0, 7, 0], [3, 0, 7, 0], [3, 0, 5, 0]], [[0, 2, 0, 8], [5, 0, 4, 0], [0, 1, 4, 0]], [[0, 3, 7, 0], [1, 0, 5, 0], [1, 0, 3, 0]], [[1, 0, 0, 5], [1, 0, 0, 4], [1, 0, 0, 3]], [[0, 4, 6, 0], [0, 4, 5, 0], [1, 0, 5, 0]], [[0, 4, 0, 5], [0, 2, 0, 5], [4, 0, 5, 0]], [[2, 0, 0, 6], [1, 0, 0, 2], [1, 0, 8, 0]], [[0, 3, 3, 0], [0, 3, 0, 6], [0, 3, 2, 0]], [[0, 5, 9, 0], [2, 0, 0, 6], [0, 4, 9, 0]], [[4, 0, 0, 8], [0, 3, 0, 6], [0, 2, 6, 0]], [[0, 4, 0, 6], [0, 3, 9, 0], [2, 0, 0, 5]], [[4, 0, 4, 0], [0, 3, 0, 3], [0, 3, 3, 0]], [[0, 4, 0, 6], [4, 0, 0, 4], [4, 0, 0, 3]], [[0, 4, 6, 0], [0, 2, 0, 6], [1, 0, 5, 0]], [[0, 5, 0, 7], [1, 0, 6, 0], [0, 2, 6, 0]], [[0, 5, 0, 4], [0, 5, 0, 3], [2, 0, 2, 0]], [[3, 0, 0, 9], [0, 2, 2, 0], [0, 1, 0, 4]], [[5, 0, 5, 0], [4, 0, 0, 6], [0, 4, 0, 6]], [[0, 3, 4, 0], [2, 0, 2, 0], [2, 0, 1, 0]], [[0, 5, 4, 0], [0, 4, 4, 0], [2, 0, 3, 0]], [[0, 0, 0, 0]]]
